p cnf 361 1
361 0
w 1 0.460033
w 2 1 0.761563
w 2 -1 0.33327
w 3 2 0
w 3 -2 1
w 4 3 0.800412
w 4 -3 0.00796395
w 5 4 1
w 5 -4 0
w 6 5 0
w 6 -5 1
w 7 6 0.272152
w 7 -6 0.406424
w 8 7 0.171612
w 8 -7 0.0593252
w 9 8 0
w 9 -8 1
w 10 9 0
w 10 -9 1
w 11 10 0.521181
w 11 -10 0.574329
w 12 11 1
w 12 -11 0
w 13 12 1
w 13 -12 0
w 14 13 0
w 14 -13 1
w 15 14 1
w 15 -14 0
w 16 15 0.202876
w 16 -15 0.437068
w 17 16 0.00328822
w 17 -16 0.445032
w 18 17 0
w 18 -17 1
w 19 18 1
w 19 -18 0
w 20 1 1
w 20 -1 0
w 21 20 2 0
w 21 20 -2 1
w 21 -20 2 0
w 21 -20 -2 1
w 22 21 3 0.227069
w 22 21 -3 0.0172109
w 22 -21 3 0.772771
w 22 -21 -3 0.74825
w 23 22 4 0
w 23 22 -4 1
w 23 -22 4 0
w 23 -22 -4 1
w 24 23 5 0
w 24 23 -5 0
w 24 -23 5 1
w 24 -23 -5 1
w 25 24 6 1
w 25 24 -6 0
w 25 -24 6 1
w 25 -24 -6 1
w 26 25 7 1
w 26 25 -7 0
w 26 -25 7 0
w 26 -25 -7 0
w 27 26 8 0
w 27 26 -8 0
w 27 -26 8 1
w 27 -26 -8 0
w 28 27 9 1
w 28 27 -9 0
w 28 -27 9 1
w 28 -27 -9 1
w 29 28 10 1
w 29 28 -10 1
w 29 -28 10 0
w 29 -28 -10 1
w 30 29 11 0
w 30 29 -11 0
w 30 -29 11 1
w 30 -29 -11 0
w 31 30 12 0
w 31 30 -12 0
w 31 -30 12 1
w 31 -30 -12 1
w 32 31 13 1
w 32 31 -13 0
w 32 -31 13 0
w 32 -31 -13 1
w 33 32 14 0.926811
w 33 32 -14 0.265129
w 33 -32 14 0.0282929
w 33 -32 -14 0.685494
w 34 33 15 1
w 34 33 -15 0
w 34 -33 15 0
w 34 -33 -15 0
w 35 34 16 0.933009
w 35 34 -16 0.500532
w 35 -34 16 0.972
w 35 -34 -16 0.0737779
w 36 35 17 1
w 36 35 -17 1
w 36 -35 17 1
w 36 -35 -17 0
w 37 36 18 1
w 37 36 -18 0
w 37 -36 18 0
w 37 -36 -18 0
w 38 37 19 1
w 38 37 -19 1
w 38 -37 19 0
w 38 -37 -19 1
w 39 20 0
w 39 -20 1
w 40 39 21 0
w 40 39 -21 0
w 40 -39 21 0
w 40 -39 -21 1
w 41 40 22 0
w 41 40 -22 0
w 41 -40 22 1
w 41 -40 -22 0
w 42 41 23 0
w 42 41 -23 1
w 42 -41 23 1
w 42 -41 -23 1
w 43 42 24 0
w 43 42 -24 0
w 43 -42 24 0
w 43 -42 -24 1
w 44 43 25 0.767445
w 44 43 -25 0.380864
w 44 -43 25 0.294064
w 44 -43 -25 0.0203642
w 45 44 26 1
w 45 44 -26 0
w 45 -44 26 1
w 45 -44 -26 1
w 46 45 27 0.879211
w 46 45 -27 0.431315
w 46 -45 27 0.252212
w 46 -45 -27 0.101699
w 47 46 28 0.352012
w 47 46 -28 0.786224
w 47 -46 28 0.988743
w 47 -46 -28 0.384821
w 48 47 29 0.153867
w 48 47 -29 0.491408
w 48 -47 29 0.311191
w 48 -47 -29 0.854157
w 49 48 30 0
w 49 48 -30 0
w 49 -48 30 0
w 49 -48 -30 1
w 50 49 31 0.11937
w 50 49 -31 0.226266
w 50 -49 31 0.869736
w 50 -49 -31 0.250868
w 51 50 32 0
w 51 50 -32 0
w 51 -50 32 0
w 51 -50 -32 1
w 52 51 33 0
w 52 51 -33 0
w 52 -51 33 1
w 52 -51 -33 0
w 53 52 34 0
w 53 52 -34 1
w 53 -52 34 0
w 53 -52 -34 1
w 54 53 35 1
w 54 53 -35 1
w 54 -53 35 0
w 54 -53 -35 1
w 55 54 36 0
w 55 54 -36 0
w 55 -54 36 1
w 55 -54 -36 1
w 56 55 37 1
w 56 55 -37 1
w 56 -55 37 0
w 56 -55 -37 1
w 57 56 38 0
w 57 56 -38 1
w 57 -56 38 0
w 57 -56 -38 0
w 58 39 1
w 58 -39 0
w 59 58 40 1
w 59 58 -40 0
w 59 -58 40 1
w 59 -58 -40 1
w 60 59 41 0
w 60 59 -41 1
w 60 -59 41 1
w 60 -59 -41 0
w 61 60 42 0
w 61 60 -42 0
w 61 -60 42 1
w 61 -60 -42 0
w 62 61 43 1
w 62 61 -43 1
w 62 -61 43 1
w 62 -61 -43 0
w 63 62 44 1
w 63 62 -44 0
w 63 -62 44 0
w 63 -62 -44 1
w 64 63 45 0
w 64 63 -45 0
w 64 -63 45 0
w 64 -63 -45 1
w 65 64 46 0
w 65 64 -46 1
w 65 -64 46 1
w 65 -64 -46 1
w 66 65 47 0.917162
w 66 65 -47 0.591277
w 66 -65 47 0.181443
w 66 -65 -47 0.0795623
w 67 66 48 0
w 67 66 -48 0
w 67 -66 48 0
w 67 -66 -48 1
w 68 67 49 1
w 68 67 -49 0
w 68 -67 49 1
w 68 -67 -49 0
w 69 68 50 0
w 69 68 -50 0
w 69 -68 50 1
w 69 -68 -50 0
w 70 69 51 0
w 70 69 -51 0
w 70 -69 51 0
w 70 -69 -51 1
w 71 70 52 0.215864
w 71 70 -52 0.85151
w 71 -70 52 0.820007
w 71 -70 -52 0.493301
w 72 71 53 0.737169
w 72 71 -53 0.0845771
w 72 -71 53 0.983139
w 72 -71 -53 0.816731
w 73 72 54 0
w 73 72 -54 0
w 73 -72 54 0
w 73 -72 -54 1
w 74 73 55 0
w 74 73 -55 1
w 74 -73 55 0
w 74 -73 -55 0
w 75 74 56 0.183695
w 75 74 -56 0.380828
w 75 -74 56 0.962423
w 75 -74 -56 0.0442831
w 76 75 57 0
w 76 75 -57 0
w 76 -75 57 1
w 76 -75 -57 1
w 77 58 1
w 77 -58 0
w 78 77 59 1
w 78 77 -59 0
w 78 -77 59 1
w 78 -77 -59 0
w 79 78 60 0
w 79 78 -60 0
w 79 -78 60 1
w 79 -78 -60 0
w 80 79 61 1
w 80 79 -61 1
w 80 -79 61 1
w 80 -79 -61 0
w 81 80 62 1
w 81 80 -62 1
w 81 -80 62 1
w 81 -80 -62 0
w 82 81 63 1
w 82 81 -63 0
w 82 -81 63 0
w 82 -81 -63 1
w 83 82 64 0
w 83 82 -64 0
w 83 -82 64 0
w 83 -82 -64 1
w 84 83 65 1
w 84 83 -65 0
w 84 -83 65 0
w 84 -83 -65 1
w 85 84 66 0
w 85 84 -66 1
w 85 -84 66 0
w 85 -84 -66 1
w 86 85 67 1
w 86 85 -67 0
w 86 -85 67 0
w 86 -85 -67 1
w 87 86 68 0.861758
w 87 86 -68 0.663871
w 87 -86 68 0.756161
w 87 -86 -68 0.179041
w 88 87 69 0.0615783
w 88 87 -69 0.458746
w 88 -87 69 0.172741
w 88 -87 -69 0.496498
w 89 88 70 0
w 89 88 -70 1
w 89 -88 70 0
w 89 -88 -70 0
w 90 89 71 1
w 90 89 -71 1
w 90 -89 71 1
w 90 -89 -71 0
w 91 90 72 0.816901
w 91 90 -72 0.566327
w 91 -90 72 0.716049
w 91 -90 -72 0.91563
w 92 91 73 0.180574
w 92 91 -73 0.17447
w 92 -91 73 0.174319
w 92 -91 -73 0.598095
w 93 92 74 0.00588967
w 93 92 -74 0.459853
w 93 -92 74 0.453613
w 93 -92 -74 0.76205
w 94 93 75 0
w 94 93 -75 1
w 94 -93 75 0
w 94 -93 -75 1
w 95 94 76 0
w 95 94 -76 1
w 95 -94 76 0
w 95 -94 -76 0
w 96 77 1
w 96 -77 0
w 97 96 78 0
w 97 96 -78 0
w 97 -96 78 0
w 97 -96 -78 1
w 98 97 79 0
w 98 97 -79 1
w 98 -97 79 0
w 98 -97 -79 0
w 99 98 80 0.403961
w 99 98 -80 0.789726
w 99 -98 80 0.485392
w 99 -98 -80 0.193703
w 100 99 81 0.945244
w 100 99 -81 0.647316
w 100 -99 81 0.557666
w 100 -99 -81 0.584138
w 101 100 82 0.381295
w 101 100 -82 0.681777
w 101 -100 82 0.519613
w 101 -100 -82 0.701422
w 102 101 83 1
w 102 101 -83 1
w 102 -101 83 1
w 102 -101 -83 0
w 103 102 84 0.988586
w 103 102 -84 0.144203
w 103 -102 84 0.0111548
w 103 -102 -84 0.97926
w 104 103 85 1
w 104 103 -85 1
w 104 -103 85 0
w 104 -103 -85 1
w 105 104 86 1
w 105 104 -86 1
w 105 -104 86 0
w 105 -104 -86 1
w 106 105 87 0.00391651
w 106 105 -87 0.932533
w 106 -105 87 0.43722
w 106 -105 -87 0.588054
w 107 106 88 0.818515
w 107 106 -88 0.269832
w 107 -106 88 0.44924
w 107 -106 -88 0.519937
w 108 107 89 1
w 108 107 -89 0
w 108 -107 89 0
w 108 -107 -89 0
w 109 108 90 1
w 109 108 -90 1
w 109 -108 90 0
w 109 -108 -90 0
w 110 109 91 1
w 110 109 -91 0
w 110 -109 91 1
w 110 -109 -91 1
w 111 110 92 1
w 111 110 -92 0
w 111 -110 92 0
w 111 -110 -92 0
w 112 111 93 1
w 112 111 -93 0
w 112 -111 93 0
w 112 -111 -93 1
w 113 112 94 0
w 113 112 -94 0
w 113 -112 94 1
w 113 -112 -94 1
w 114 113 95 1
w 114 113 -95 0
w 114 -113 95 1
w 114 -113 -95 1
w 115 96 0
w 115 -96 1
w 116 115 97 0
w 116 115 -97 0
w 116 -115 97 1
w 116 -115 -97 0
w 117 116 98 1
w 117 116 -98 0
w 117 -116 98 1
w 117 -116 -98 1
w 118 117 99 1
w 118 117 -99 0
w 118 -117 99 1
w 118 -117 -99 1
w 119 118 100 0
w 119 118 -100 1
w 119 -118 100 1
w 119 -118 -100 0
w 120 119 101 1
w 120 119 -101 1
w 120 -119 101 0
w 120 -119 -101 1
w 121 120 102 1
w 121 120 -102 0
w 121 -120 102 0
w 121 -120 -102 0
w 122 121 103 1
w 122 121 -103 0
w 122 -121 103 0
w 122 -121 -103 0
w 123 122 104 1
w 123 122 -104 1
w 123 -122 104 0
w 123 -122 -104 0
w 124 123 105 0
w 124 123 -105 1
w 124 -123 105 0
w 124 -123 -105 1
w 125 124 106 1
w 125 124 -106 1
w 125 -124 106 0
w 125 -124 -106 1
w 126 125 107 1
w 126 125 -107 0
w 126 -125 107 1
w 126 -125 -107 1
w 127 126 108 1
w 127 126 -108 0
w 127 -126 108 1
w 127 -126 -108 0
w 128 127 109 0.00858062
w 128 127 -109 0.448445
w 128 -127 109 0.376831
w 128 -127 -109 0.28889
w 129 128 110 0
w 129 128 -110 1
w 129 -128 110 1
w 129 -128 -110 1
w 130 129 111 0
w 130 129 -111 1
w 130 -129 111 1
w 130 -129 -111 0
w 131 130 112 1
w 131 130 -112 1
w 131 -130 112 0
w 131 -130 -112 1
w 132 131 113 0
w 132 131 -113 0
w 132 -131 113 1
w 132 -131 -113 1
w 133 132 114 0.991968
w 133 132 -114 0.564147
w 133 -132 114 0.366382
w 133 -132 -114 0.110105
w 134 115 1
w 134 -115 0
w 135 134 116 0
w 135 134 -116 0
w 135 -134 116 1
w 135 -134 -116 0
w 136 135 117 0.785775
w 136 135 -117 0.63717
w 136 -135 117 0.954242
w 136 -135 -117 0.280959
w 137 136 118 0.655425
w 137 136 -118 0.91599
w 137 -136 118 0.881139
w 137 -136 -118 0.098872
w 138 137 119 1
w 138 137 -119 1
w 138 -137 119 0
w 138 -137 -119 0
w 139 138 120 0.665594
w 139 138 -120 0.653643
w 139 -138 120 0.449424
w 139 -138 -120 0.615089
w 140 139 121 1
w 140 139 -121 0
w 140 -139 121 1
w 140 -139 -121 0
w 141 140 122 1
w 141 140 -122 0
w 141 -140 122 0
w 141 -140 -122 1
w 142 141 123 0.850742
w 142 141 -123 0.776679
w 142 -141 123 0.585187
w 142 -141 -123 0.804984
w 143 142 124 0
w 143 142 -124 0
w 143 -142 124 0
w 143 -142 -124 1
w 144 143 125 0
w 144 143 -125 0
w 144 -143 125 1
w 144 -143 -125 1
w 145 144 126 0.946858
w 145 144 -126 0.382332
w 145 -144 126 0.481079
w 145 -144 -126 0.396283
w 146 145 127 0.12669
w 146 145 -127 0.409854
w 146 -145 127 0.978892
w 146 -145 -127 0.882406
w 147 146 128 0.335326
w 147 146 -128 0.196673
w 147 -146 128 0.463852
w 147 -146 -128 0.355613
w 148 147 129 1
w 148 147 -129 0
w 148 -147 129 0
w 148 -147 -129 1
w 149 148 130 0
w 149 148 -130 1
w 149 -148 130 1
w 149 -148 -130 0
w 150 149 131 1
w 150 149 -131 1
w 150 -149 131 1
w 150 -149 -131 0
w 151 150 132 1
w 151 150 -132 1
w 151 -150 132 0
w 151 -150 -132 1
w 152 151 133 1
w 152 151 -133 0
w 152 -151 133 1
w 152 -151 -133 0
w 153 134 1
w 153 -134 0
w 154 153 135 1
w 154 153 -135 0
w 154 -153 135 0
w 154 -153 -135 0
w 155 154 136 0.677832
w 155 154 -136 0.600399
w 155 -154 136 0.771676
w 155 -154 -136 0.689171
w 156 155 137 1
w 156 155 -137 1
w 156 -155 137 0
w 156 -155 -137 0
w 157 156 138 1
w 157 156 -138 1
w 157 -156 138 0
w 157 -156 -138 1
w 158 157 139 1
w 158 157 -139 0
w 158 -157 139 1
w 158 -157 -139 0
w 159 158 140 0
w 159 158 -140 1
w 159 -158 140 0
w 159 -158 -140 1
w 160 159 141 0
w 160 159 -141 1
w 160 -159 141 1
w 160 -159 -141 1
w 161 160 142 1
w 161 160 -142 0
w 161 -160 142 0
w 161 -160 -142 1
w 162 161 143 0.246549
w 162 161 -143 0.216756
w 162 -161 143 0.594377
w 162 -161 -143 0.438499
w 163 162 144 1
w 163 162 -144 0
w 163 -162 144 1
w 163 -162 -144 1
w 164 163 145 0
w 164 163 -145 1
w 164 -163 145 1
w 164 -163 -145 1
w 165 164 146 1
w 165 164 -146 0
w 165 -164 146 1
w 165 -164 -146 1
w 166 165 147 1
w 166 165 -147 0
w 166 -165 147 1
w 166 -165 -147 0
w 167 166 148 1
w 167 166 -148 0
w 167 -166 148 1
w 167 -166 -148 1
w 168 167 149 1
w 168 167 -149 0
w 168 -167 149 1
w 168 -167 -149 1
w 169 168 150 0
w 169 168 -150 1
w 169 -168 150 0
w 169 -168 -150 0
w 170 169 151 0
w 170 169 -151 1
w 170 -169 151 1
w 170 -169 -151 1
w 171 170 152 1
w 171 170 -152 1
w 171 -170 152 0
w 171 -170 -152 0
w 172 153 1
w 172 -153 0
w 173 172 154 1
w 173 172 -154 0
w 173 -172 154 1
w 173 -172 -154 1
w 174 173 155 0.3881
w 174 173 -155 0.0415686
w 174 -173 155 0.159704
w 174 -173 -155 0.166106
w 175 174 156 1
w 175 174 -156 0
w 175 -174 156 1
w 175 -174 -156 0
w 176 175 157 1
w 176 175 -157 0
w 176 -175 157 0
w 176 -175 -157 0
w 177 176 158 0
w 177 176 -158 0
w 177 -176 158 1
w 177 -176 -158 1
w 178 177 159 0.0060135
w 178 177 -159 0.21936
w 178 -177 159 0.0855986
w 178 -177 -159 0.198203
w 179 178 160 1
w 179 178 -160 1
w 179 -178 160 1
w 179 -178 -160 0
w 180 179 161 0.371439
w 180 179 -161 0.00516196
w 180 -179 161 0.13422
w 180 -179 -161 0.537545
w 181 180 162 1
w 181 180 -162 0
w 181 -180 162 1
w 181 -180 -162 1
w 182 181 163 1
w 182 181 -163 1
w 182 -181 163 1
w 182 -181 -163 0
w 183 182 164 1
w 183 182 -164 0
w 183 -182 164 0
w 183 -182 -164 0
w 184 183 165 0.451791
w 184 183 -165 0.154424
w 184 -183 165 0.0826418
w 184 -183 -165 0.53739
w 185 184 166 1
w 185 184 -166 0
w 185 -184 166 0
w 185 -184 -166 0
w 186 185 167 1
w 186 185 -167 0
w 186 -185 167 0
w 186 -185 -167 1
w 187 186 168 0
w 187 186 -168 1
w 187 -186 168 1
w 187 -186 -168 1
w 188 187 169 0
w 188 187 -169 1
w 188 -187 169 0
w 188 -187 -169 0
w 189 188 170 0
w 189 188 -170 1
w 189 -188 170 1
w 189 -188 -170 0
w 190 189 171 0
w 190 189 -171 1
w 190 -189 171 0
w 190 -189 -171 0
w 191 172 0.107011
w 191 -172 0.966751
w 192 191 173 1
w 192 191 -173 0
w 192 -191 173 0
w 192 -191 -173 0
w 193 192 174 0
w 193 192 -174 1
w 193 -192 174 1
w 193 -192 -174 1
w 194 193 175 1
w 194 193 -175 1
w 194 -193 175 1
w 194 -193 -175 0
w 195 194 176 0
w 195 194 -176 1
w 195 -194 176 1
w 195 -194 -176 1
w 196 195 177 1
w 196 195 -177 0
w 196 -195 177 0
w 196 -195 -177 1
w 197 196 178 1
w 197 196 -178 0
w 197 -196 178 1
w 197 -196 -178 1
w 198 197 179 1
w 198 197 -179 0
w 198 -197 179 1
w 198 -197 -179 0
w 199 198 180 0
w 199 198 -180 1
w 199 -198 180 0
w 199 -198 -180 1
w 200 199 181 0.736345
w 200 199 -181 0.570992
w 200 -199 181 0.219372
w 200 -199 -181 0.289911
w 201 200 182 1
w 201 200 -182 0
w 201 -200 182 0
w 201 -200 -182 0
w 202 201 183 1
w 202 201 -183 1
w 202 -201 183 0
w 202 -201 -183 1
w 203 202 184 1
w 203 202 -184 0
w 203 -202 184 0
w 203 -202 -184 0
w 204 203 185 1
w 204 203 -185 0
w 204 -203 185 0
w 204 -203 -185 1
w 205 204 186 1
w 205 204 -186 1
w 205 -204 186 1
w 205 -204 -186 0
w 206 205 187 1
w 206 205 -187 0
w 206 -205 187 1
w 206 -205 -187 0
w 207 206 188 1
w 207 206 -188 0
w 207 -206 188 1
w 207 -206 -188 1
w 208 207 189 1
w 208 207 -189 0
w 208 -207 189 1
w 208 -207 -189 1
w 209 208 190 0
w 209 208 -190 0
w 209 -208 190 0
w 209 -208 -190 1
w 210 191 0
w 210 -191 1
w 211 210 192 0.322593
w 211 210 -192 0.155794
w 211 -210 192 0.351528
w 211 -210 -192 0.820341
w 212 211 193 0.669785
w 212 211 -193 0.192213
w 212 -211 193 0.400608
w 212 -211 -193 0.559034
w 213 212 194 0.181099
w 213 212 -194 0.171564
w 213 -212 194 0.485133
w 213 -212 -194 0.519315
w 214 213 195 0.639855
w 214 213 -195 0.111014
w 214 -213 195 0.404611
w 214 -213 -195 0.190195
w 215 214 196 0.379899
w 215 214 -196 0.833106
w 215 -214 196 0.376661
w 215 -214 -196 0.777189
w 216 215 197 1
w 216 215 -197 0
w 216 -215 197 0
w 216 -215 -197 1
w 217 216 198 0
w 217 216 -198 1
w 217 -216 198 1
w 217 -216 -198 1
w 218 217 199 0
w 218 217 -199 0
w 218 -217 199 1
w 218 -217 -199 1
w 219 218 200 1
w 219 218 -200 1
w 219 -218 200 0
w 219 -218 -200 1
w 220 219 201 1
w 220 219 -201 1
w 220 -219 201 1
w 220 -219 -201 0
w 221 220 202 1
w 221 220 -202 1
w 221 -220 202 0
w 221 -220 -202 0
w 222 221 203 0
w 222 221 -203 0
w 222 -221 203 1
w 222 -221 -203 1
w 223 222 204 1
w 223 222 -204 0
w 223 -222 204 0
w 223 -222 -204 0
w 224 223 205 0.297049
w 224 223 -205 0.646491
w 224 -223 205 0.125607
w 224 -223 -205 0.147832
w 225 224 206 0
w 225 224 -206 1
w 225 -224 206 0
w 225 -224 -206 0
w 226 225 207 0
w 226 225 -207 1
w 226 -225 207 1
w 226 -225 -207 1
w 227 226 208 0
w 227 226 -208 1
w 227 -226 208 1
w 227 -226 -208 1
w 228 227 209 0
w 228 227 -209 1
w 228 -227 209 1
w 228 -227 -209 0
w 229 210 0
w 229 -210 1
w 230 229 211 1
w 230 229 -211 1
w 230 -229 211 0
w 230 -229 -211 1
w 231 230 212 0
w 231 230 -212 0
w 231 -230 212 1
w 231 -230 -212 0
w 232 231 213 1
w 232 231 -213 0
w 232 -231 213 1
w 232 -231 -213 1
w 233 232 214 1
w 233 232 -214 0
w 233 -232 214 0
w 233 -232 -214 0
w 234 233 215 0.200015
w 234 233 -215 0.546192
w 234 -233 215 0.653854
w 234 -233 -215 0.0374016
w 235 234 216 0
w 235 234 -216 0
w 235 -234 216 1
w 235 -234 -216 0
w 236 235 217 0
w 236 235 -217 1
w 236 -235 217 1
w 236 -235 -217 1
w 237 236 218 0
w 237 236 -218 1
w 237 -236 218 0
w 237 -236 -218 0
w 238 237 219 1
w 238 237 -219 0
w 238 -237 219 1
w 238 -237 -219 0
w 239 238 220 0.067314
w 239 238 -220 0.67196
w 239 -238 220 0.366026
w 239 -238 -220 0.970343
w 240 239 221 1
w 240 239 -221 0
w 240 -239 221 0
w 240 -239 -221 0
w 241 240 222 1
w 241 240 -222 0
w 241 -240 222 0
w 241 -240 -222 0
w 242 241 223 1
w 242 241 -223 0
w 242 -241 223 0
w 242 -241 -223 1
w 243 242 224 1
w 243 242 -224 1
w 243 -242 224 0
w 243 -242 -224 1
w 244 243 225 0.442297
w 244 243 -225 0.292158
w 244 -243 225 0.44864
w 244 -243 -225 0.735722
w 245 244 226 1
w 245 244 -226 0
w 245 -244 226 0
w 245 -244 -226 1
w 246 245 227 0.306548
w 246 245 -227 0.0519008
w 246 -245 227 0.943736
w 246 -245 -227 0.0903301
w 247 246 228 0.151495
w 247 246 -228 0.121979
w 247 -246 228 0.233078
w 247 -246 -228 0.0420796
w 248 229 1
w 248 -229 0
w 249 248 230 0
w 249 248 -230 1
w 249 -248 230 1
w 249 -248 -230 1
w 250 249 231 0
w 250 249 -231 0
w 250 -249 231 1
w 250 -249 -231 1
w 251 250 232 0.949591
w 251 250 -232 0.722338
w 251 -250 232 0.5199
w 251 -250 -232 0.346591
w 252 251 233 0
w 252 251 -233 0
w 252 -251 233 1
w 252 -251 -233 1
w 253 252 234 1
w 253 252 -234 0
w 253 -252 234 0
w 253 -252 -234 0
w 254 253 235 1
w 254 253 -235 0
w 254 -253 235 0
w 254 -253 -235 1
w 255 254 236 0.457779
w 255 254 -236 0.729108
w 255 -254 236 0.369446
w 255 -254 -236 0.234134
w 256 255 237 0.665565
w 256 255 -237 0.657947
w 256 -255 237 0.284512
w 256 -255 -237 0.322999
w 257 256 238 0.0686903
w 257 256 -238 0.27259
w 257 -256 238 0.653984
w 257 -256 -238 0.588591
w 258 257 239 1
w 258 257 -239 0
w 258 -257 239 0
w 258 -257 -239 0
w 259 258 240 1
w 259 258 -240 1
w 259 -258 240 1
w 259 -258 -240 0
w 260 259 241 0
w 260 259 -241 1
w 260 -259 241 0
w 260 -259 -241 0
w 261 260 242 1
w 261 260 -242 0
w 261 -260 242 0
w 261 -260 -242 0
w 262 261 243 0
w 262 261 -243 0
w 262 -261 243 1
w 262 -261 -243 1
w 263 262 244 1
w 263 262 -244 0
w 263 -262 244 1
w 263 -262 -244 0
w 264 263 245 0.958059
w 264 263 -245 0.193391
w 264 -263 245 0.688365
w 264 -263 -245 0.992789
w 265 264 246 0.696207
w 265 264 -246 0.749617
w 265 -264 246 0.53112
w 265 -264 -246 0.7441
w 266 265 247 0
w 266 265 -247 0
w 266 -265 247 1
w 266 -265 -247 0
w 267 248 0.58871
w 267 -248 0.387451
w 268 267 249 0.666434
w 268 267 -249 0.55243
w 268 -267 249 0.713305
w 268 -267 -249 0.409724
w 269 268 250 1
w 269 268 -250 0
w 269 -268 250 1
w 269 -268 -250 1
w 270 269 251 0.538485
w 270 269 -251 0.797948
w 270 -269 251 0.77295
w 270 -269 -251 0.731876
w 271 270 252 1
w 271 270 -252 1
w 271 -270 252 0
w 271 -270 -252 0
w 272 271 253 0
w 272 271 -253 0
w 272 -271 253 1
w 272 -271 -253 0
w 273 272 254 1
w 273 272 -254 0
w 273 -272 254 1
w 273 -272 -254 1
w 274 273 255 0.520872
w 274 273 -255 0.401215
w 274 -273 255 0.306645
w 274 -273 -255 0.234177
w 275 274 256 0.682001
w 275 274 -256 0.0670398
w 275 -274 256 0.286951
w 275 -274 -256 0.811929
w 276 275 257 0
w 276 275 -257 1
w 276 -275 257 1
w 276 -275 -257 1
w 277 276 258 0
w 277 276 -258 0
w 277 -276 258 0
w 277 -276 -258 1
w 278 277 259 0.481549
w 278 277 -259 0.990117
w 278 -277 259 0.110025
w 278 -277 -259 0.391708
w 279 278 260 1
w 279 278 -260 0
w 279 -278 260 1
w 279 -278 -260 0
w 280 279 261 0
w 280 279 -261 0
w 280 -279 261 0
w 280 -279 -261 1
w 281 280 262 1
w 281 280 -262 0
w 281 -280 262 0
w 281 -280 -262 0
w 282 281 263 0
w 282 281 -263 0
w 282 -281 263 1
w 282 -281 -263 0
w 283 282 264 0
w 283 282 -264 1
w 283 -282 264 1
w 283 -282 -264 0
w 284 283 265 0
w 284 283 -265 1
w 284 -283 265 0
w 284 -283 -265 0
w 285 284 266 0
w 285 284 -266 1
w 285 -284 266 0
w 285 -284 -266 1
w 286 267 0.0372182
w 286 -267 0.976921
w 287 286 268 0
w 287 286 -268 0
w 287 -286 268 1
w 287 -286 -268 0
w 288 287 269 0.355764
w 288 287 -269 0.322053
w 288 -287 269 0.455195
w 288 -287 -269 0.441596
w 289 288 270 0.201163
w 289 288 -270 0.899838
w 289 -288 270 0.895814
w 289 -288 -270 0.644908
w 290 289 271 0.158846
w 290 289 -271 0.933037
w 290 -289 271 0.407728
w 290 -289 -271 0.411996
w 291 290 272 1
w 291 290 -272 1
w 291 -290 272 0
w 291 -290 -272 1
w 292 291 273 0
w 292 291 -273 1
w 292 -291 273 1
w 292 -291 -273 1
w 293 292 274 0
w 293 292 -274 1
w 293 -292 274 1
w 293 -292 -274 0
w 294 293 275 1
w 294 293 -275 0
w 294 -293 275 0
w 294 -293 -275 0
w 295 294 276 0
w 295 294 -276 0
w 295 -294 276 0
w 295 -294 -276 1
w 296 295 277 0
w 296 295 -277 0
w 296 -295 277 0
w 296 -295 -277 1
w 297 296 278 1
w 297 296 -278 0
w 297 -296 278 0
w 297 -296 -278 1
w 298 297 279 0.0292323
w 298 297 -279 0.524844
w 298 -297 279 0.0497215
w 298 -297 -279 0.53069
w 299 298 280 1
w 299 298 -280 1
w 299 -298 280 1
w 299 -298 -280 0
w 300 299 281 0.738931
w 300 299 -281 0.0184473
w 300 -299 281 0.83622
w 300 -299 -281 0.699249
w 301 300 282 0.335511
w 301 300 -282 0.448235
w 301 -300 282 0.816678
w 301 -300 -282 0.734641
w 302 301 283 0
w 302 301 -283 0
w 302 -301 283 0
w 302 -301 -283 1
w 303 302 284 1
w 303 302 -284 1
w 303 -302 284 0
w 303 -302 -284 1
w 304 303 285 1
w 304 303 -285 1
w 304 -303 285 0
w 304 -303 -285 0
w 305 286 0.276511
w 305 -286 0.660176
w 306 305 287 1
w 306 305 -287 0
w 306 -305 287 1
w 306 -305 -287 1
w 307 306 288 1
w 307 306 -288 0
w 307 -306 288 1
w 307 -306 -288 1
w 308 307 289 0.639626
w 308 307 -289 0.695249
w 308 -307 289 0.00818454
w 308 -307 -289 0.536307
w 309 308 290 1
w 309 308 -290 0
w 309 -308 290 0
w 309 -308 -290 0
w 310 309 291 1
w 310 309 -291 1
w 310 -309 291 1
w 310 -309 -291 0
w 311 310 292 1
w 311 310 -292 1
w 311 -310 292 0
w 311 -310 -292 1
w 312 311 293 1
w 312 311 -293 1
w 312 -311 293 0
w 312 -311 -293 0
w 313 312 294 1
w 313 312 -294 1
w 313 -312 294 0
w 313 -312 -294 0
w 314 313 295 0.568744
w 314 313 -295 0.794214
w 314 -313 295 0.508116
w 314 -313 -295 0.576928
w 315 314 296 0
w 315 314 -296 1
w 315 -314 296 1
w 315 -314 -296 1
w 316 315 297 0.267778
w 316 315 -297 0.448192
w 316 -315 297 0.196484
w 316 -315 -297 0.225632
w 317 316 298 0
w 317 316 -298 1
w 317 -316 298 0
w 317 -316 -298 1
w 318 317 299 0.899929
w 318 317 -299 0.809936
w 318 -317 299 0.307006
w 318 -317 -299 0.409569
w 319 318 300 0.687578
w 319 318 -300 0.017566
w 319 -318 300 0.55045
w 319 -318 -300 0.294915
w 320 319 301 1
w 320 319 -301 1
w 320 -319 301 1
w 320 -319 -301 0
w 321 320 302 0
w 321 320 -302 1
w 321 -320 302 1
w 321 -320 -302 1
w 322 321 303 1
w 322 321 -303 1
w 322 -321 303 0
w 322 -321 -303 1
w 323 322 304 0.825177
w 323 322 -304 0.165258
w 323 -322 304 0.152855
w 323 -322 -304 0.614573
w 324 305 0
w 324 -305 1
w 325 324 306 1
w 325 324 -306 0
w 325 -324 306 1
w 325 -324 -306 0
w 326 325 307 0.941637
w 326 325 -307 0.745822
w 326 -325 307 0.260042
w 326 -325 -307 0.113791
w 327 326 308 0
w 327 326 -308 0
w 327 -326 308 0
w 327 -326 -308 1
w 328 327 309 1
w 328 327 -309 0
w 328 -327 309 1
w 328 -327 -309 1
w 329 328 310 1
w 329 328 -310 0
w 329 -328 310 1
w 329 -328 -310 0
w 330 329 311 1
w 330 329 -311 0
w 330 -329 311 1
w 330 -329 -311 0
w 331 330 312 1
w 331 330 -312 1
w 331 -330 312 0
w 331 -330 -312 0
w 332 331 313 0.332434
w 332 331 -313 0.438337
w 332 -331 313 0.696466
w 332 -331 -313 0.592476
w 333 332 314 1
w 333 332 -314 0
w 333 -332 314 1
w 333 -332 -314 1
w 334 333 315 0
w 334 333 -315 1
w 334 -333 315 1
w 334 -333 -315 1
w 335 334 316 0
w 335 334 -316 0
w 335 -334 316 1
w 335 -334 -316 0
w 336 335 317 0.944905
w 336 335 -317 0.132761
w 336 -335 317 0.294641
w 336 -335 -317 0.0346627
w 337 336 318 0
w 337 336 -318 1
w 337 -336 318 0
w 337 -336 -318 0
w 338 337 319 1
w 338 337 -319 1
w 338 -337 319 0
w 338 -337 -319 1
w 339 338 320 0
w 339 338 -320 0
w 339 -338 320 0
w 339 -338 -320 1
w 340 339 321 0.169269
w 340 339 -321 0.960622
w 340 -339 321 0.496603
w 340 -339 -321 0.181974
w 341 340 322 1
w 341 340 -322 0
w 341 -340 322 0
w 341 -340 -322 1
w 342 341 323 0.0627694
w 342 341 -323 0.126532
w 342 -341 323 0.0204525
w 342 -341 -323 0.35741
w 343 324 1
w 343 -324 0
w 344 343 325 0
w 344 343 -325 1
w 344 -343 325 1
w 344 -343 -325 1
w 345 344 326 0
w 345 344 -326 0
w 345 -344 326 1
w 345 -344 -326 1
w 346 345 327 0
w 346 345 -327 1
w 346 -345 327 0
w 346 -345 -327 0
w 347 346 328 1
w 347 346 -328 1
w 347 -346 328 0
w 347 -346 -328 1
w 348 347 329 1
w 348 347 -329 1
w 348 -347 329 1
w 348 -347 -329 0
w 349 348 330 0
w 349 348 -330 0
w 349 -348 330 1
w 349 -348 -330 1
w 350 349 331 0
w 350 349 -331 0
w 350 -349 331 1
w 350 -349 -331 1
w 351 350 332 0
w 351 350 -332 1
w 351 -350 332 0
w 351 -350 -332 1
w 352 351 333 0.537576
w 352 351 -333 0.749324
w 352 -351 333 0.885527
w 352 -351 -333 0.95751
w 353 352 334 0.837173
w 353 352 -334 0.874047
w 353 -352 334 0.0625034
w 353 -352 -334 0.442766
w 354 353 335 1
w 354 353 -335 1
w 354 -353 335 0
w 354 -353 -335 0
w 355 354 336 0
w 355 354 -336 1
w 355 -354 336 1
w 355 -354 -336 1
w 356 355 337 1
w 356 355 -337 1
w 356 -355 337 1
w 356 -355 -337 0
w 357 356 338 1
w 357 356 -338 0
w 357 -356 338 1
w 357 -356 -338 0
w 358 357 339 0.0377116
w 358 357 -339 0.362231
w 358 -357 339 0.837656
w 358 -357 -339 0.995222
w 359 358 340 1
w 359 358 -340 0
w 359 -358 340 1
w 359 -358 -340 1
w 360 359 341 0
w 360 359 -341 0
w 360 -359 341 1
w 360 -359 -341 1
w 361 360 342 0.797657
w 361 360 -342 0.474495
w 361 -360 342 0.422638
w 361 -360 -342 0.720732